1763.24
0 11 66 58 17 3 22 0
0 38 31 39 18 1 37 67 0
0 57 48 69 62 6 40 46 0
0 63 43 61 21 29 52 54 65 68 0
0 24 23 20 13 19 59 35 12 0
0 73 64 16 26 53 2 75 0
0 47 70 5 4 34 7 50 0
0 71 60 36 8 14 45 30 51 0
0 41 49 55 25 44 9 10 27 0
0 72 32 56 42 33 28 74 15 0
